Reading model...
...model read.
creating competitive generators file...
...competitive generators recorded.
Loading data...
.. real-time data read.
Compiling instance...
...instance created.
Creating Offer Mitigation (model will solve as dispatch if TRUE)...
NOTE: storage offers will not be mitigated
...storage offer mitigation file created
Converting model to MPEC...
...converted
NOTE: initial MIP solve with only storage competitive to get feasible solution
Solving...

Welcome to IBM(R) ILOG(R) CPLEX(R) Interactive Optimizer 12.9.0.0
  with Simplex, Mixed Integer & Barrier Optimizers
5725-A06 5725-A29 5724-Y48 5724-Y49 5724-Y54 5724-Y55 5655-Y21
Copyright IBM Corp. 1988, 2019.  All Rights Reserved.

Type 'help' for a list of available commands.
Type 'help' followed by a command name for more
information on commands.

CPLEX> Logfile 'cplex.log' closed.
Logfile 'C:\Users\llavin\Desktop\test85\logs\tmpojh1e5js.cplex.log' open.
CPLEX> New value for parallel optimization mode: -1
CPLEX> New value for mixed integer optimality gap tolerance: 0.001
CPLEX> New value for deterministic time limit in ticks: 100000
CPLEX> Problem 'C:\Users\llavin\Desktop\test85\logs\tmpcwh2_s14.pyomo.lp' read.
Read time = 0.52 sec. (27.86 ticks)
CPLEX> Problem name         : C:\Users\llavin\Desktop\test85\logs\tmpcwh2_s14.pyomo.lp
Objective sense      : Maximize
Variables            :  107779  [Nneg: 1,  Box: 44054,  Free: 8928,
                                 Binary: 54796]
Objective nonzeros   :   18442
Linear constraints   :  246995  [Less: 82866,  Greater: 118424,  Equal: 45705]
  Nonzeros           :  581845
  RHS nonzeros       :  135607

Variables            : Min LB: -5000.000        Max UB: 1000000.       
Objective nonzeros   : Min   : 0.008333333      Max   : 2500.000       
Linear constraints   :
  Nonzeros           : Min   : 0.008333333      Max   : 1000000.       
  RHS nonzeros       : Min   : 0.008333333      Max   : 1000000.       
CPLEX> CPXPARAM_Parallel                                -1
CPXPARAM_DetTimeLimit                            100000
CPXPARAM_MIP_Tolerances_MIPGap                   0.001
Tried aggregator 3 times.
MIP Presolve eliminated 176356 rows and 36853 columns.
MIP Presolve added 7114 rows and 0 columns.
MIP Presolve modified 50742 coefficients.
Aggregator did 26011 substitutions.
Reduced MIP has 51742 rows, 44060 columns, and 142034 nonzeros.
Reduced MIP has 17431 binaries, 0 generals, 0 SOSs, and 0 indicators.
Presolve time = 0.59 sec. (345.13 ticks)
Probing fixed 858 vars, tightened 7983 bounds.
Probing time = 0.39 sec. (14.79 ticks)
Tried aggregator 2 times.
MIP Presolve eliminated 1942 rows and 1727 columns.
MIP Presolve modified 6513 coefficients.
Aggregator did 48 substitutions.
Reduced MIP has 49752 rows, 42285 columns, and 136224 nonzeros.
Reduced MIP has 16573 binaries, 0 generals, 0 SOSs, and 0 indicators.
Presolve time = 0.28 sec. (249.77 ticks)
Probing fixed 0 vars, tightened 168 bounds.
Probing time = 0.53 sec. (15.56 ticks)
Clique table members: 86446.
MIP emphasis: balance optimality and feasibility.
MIP search method: dynamic search.
Parallel mode: opportunistic, using up to 32 threads.
Root relaxation solution time = 1.30 sec. (2246.67 ticks)

        Nodes                                         Cuts/
   Node  Left     Objective  IInf  Best Integer    Best Bound    ItCnt     Gap

      0     0        0.0000   276                      0.0000    11459         
*     0+    0                            0.0000        0.0000             0.00%
      0     0        cutoff              0.0000        0.0000    11459    0.00%
Elapsed time = 5.00 sec. (5028.02 ticks, tree = 0.01 MB, solutions = 1)

Root node processing (before b&c):
  Real time             =    5.03 sec. (5031.70 ticks)
Parallel b&c, 32 threads:
  Real time             =    0.00 sec. (0.00 ticks)
  Sync time (average)   =    0.00 sec.
  Wait time (average)   =    0.00 sec.
                          ------------
Total (root+branch&cut) =    5.03 sec. (5031.70 ticks)

Solution pool: 1 solution saved.

MIP - Integer optimal solution:  Objective =  4.6711647883e-09
Solution time =    5.06 sec.  Iterations = 11459  Nodes = 0
Deterministic time = 5032.01 ticks  (994.08 ticks/sec)

CPLEX> Incumbent solution written to file 'C:\Users\llavin\Desktop\test85\logs\tmpmtrj6q1j.cplex.sol'.
CPLEX> NOTE: no warmstart specified for MIP iteration, default behavior is true
NOTE: resolving with all competitive generators using storage-only solution to warmstart
Solving...

Welcome to IBM(R) ILOG(R) CPLEX(R) Interactive Optimizer 12.9.0.0
  with Simplex, Mixed Integer & Barrier Optimizers
5725-A06 5725-A29 5724-Y48 5724-Y49 5724-Y54 5724-Y55 5655-Y21
Copyright IBM Corp. 1988, 2019.  All Rights Reserved.

Type 'help' for a list of available commands.
Type 'help' followed by a command name for more
information on commands.

CPLEX> Logfile 'cplex.log' closed.
Logfile 'C:\Users\llavin\Desktop\test85\logs\tmp6n5rqsjm.cplex.log' open.
CPLEX> New value for parallel optimization mode: -1
CPLEX> New value for mixed integer optimality gap tolerance: 0.001
CPLEX> New value for deterministic time limit in ticks: 100000
CPLEX> Problem 'C:\Users\llavin\Desktop\test85\logs\tmptkjg7jca.pyomo.lp' read.
Read time = 0.52 sec. (27.91 ticks)
CPLEX> MIP start file 'C:\Users\llavin\Desktop\test85\logs\tmpa6equ7si.cplex.mst' read.
CPLEX> Problem name         : C:\Users\llavin\Desktop\test85\logs\tmptkjg7jca.pyomo.lp
Objective sense      : Maximize
Variables            :  109219  [Nneg: 1,  Box: 45494,  Free: 8928,
                                 Binary: 54796]
Objective nonzeros   :   19834
Linear constraints   :  246995  [Less: 82866,  Greater: 118424,  Equal: 45705]
  Nonzeros           :  581845
  RHS nonzeros       :  135607

Variables            : Min LB: -5000.000        Max UB: 1000000.       
Objective nonzeros   : Min   : 0.008333333      Max   : 2500.000       
Linear constraints   :
  Nonzeros           : Min   : 0.008333333      Max   : 1000000.       
  RHS nonzeros       : Min   : 0.008333333      Max   : 1000000.       
CPLEX> CPXPARAM_Parallel                                -1
CPXPARAM_DetTimeLimit                            100000
CPXPARAM_MIP_Tolerances_MIPGap                   0.001
Warning:  No solution found from 1 MIP starts.
Retaining values of one MIP start for possible repair.
Tried aggregator 3 times.
MIP Presolve eliminated 176356 rows and 38293 columns.
MIP Presolve added 7114 rows and 0 columns.
MIP Presolve modified 50742 coefficients.
Aggregator did 26011 substitutions.
Reduced MIP has 51742 rows, 44060 columns, and 142034 nonzeros.
Reduced MIP has 17431 binaries, 0 generals, 0 SOSs, and 0 indicators.
Presolve time = 0.59 sec. (345.87 ticks)
Probing fixed 858 vars, tightened 7983 bounds.
Probing time = 0.39 sec. (14.79 ticks)
Tried aggregator 2 times.
MIP Presolve eliminated 1942 rows and 1727 columns.
MIP Presolve modified 6513 coefficients.
Aggregator did 48 substitutions.
Reduced MIP has 49752 rows, 42285 columns, and 136224 nonzeros.
Reduced MIP has 16573 binaries, 0 generals, 0 SOSs, and 0 indicators.
Presolve time = 0.27 sec. (249.78 ticks)
Probing fixed 0 vars, tightened 168 bounds.
Probing time = 0.53 sec. (15.56 ticks)
Clique table members: 86446.
MIP emphasis: balance optimality and feasibility.
MIP search method: dynamic search.
Parallel mode: opportunistic, using up to 32 threads.
Root relaxation solution time = 1.25 sec. (2265.94 ticks)

        Nodes                                         Cuts/
   Node  Left     Objective  IInf  Best Integer    Best Bound    ItCnt     Gap

      0     0     2736.7492   322                   2736.7492    11338         
      0     0     2736.7473    21                    Cuts: 89    11376         
*     0+    0                         2611.8936     2736.7473             4.78%
      0     0     2736.6959    22     2611.8936       Cuts: 8    11381    4.78%
      0     0     2736.6959    16     2611.8936       Cuts: 8    11386    4.78%
      0     0     2736.6959    12     2611.8936      Cuts: 50    11404    4.78%
      0     0     2736.6959    13     2611.8936    MIRcuts: 2    11405    4.78%
Repair heuristic found nothing.
      0    11    infeasible           2611.8936       Cuts: 2    11481    4.77%
Elapsed time = 11.59 sec. (6891.89 ticks, tree = 0.02 MB, solutions = 1)
    116    16     2732.4257     3     2651.0123     2736.3918    11539    3.22%
    554    56     2658.3488     3     2658.3488     2736.3918    11763    2.94%
    943   243     2731.2845     1     2658.3488     2736.3918    12754    2.94%
*  1054   270      integral     0     2726.4318     2736.3918    13009    0.37%
*  1065   367      integral     0     2732.4257     2736.3918    13502    0.15%
*  1214   336      integral     0     2732.4257     2736.3918    13360    0.15%
   1231   335     2732.4257     0     2732.4257     2736.3918    13360    0.15%
   1250   442     2731.6169     9     2732.4257     2736.3509    14023    0.14%

Cover cuts applied:  6
Implied bound cuts applied:  8
Flow cuts applied:  59
Mixed integer rounding cuts applied:  4
Lift and project cuts applied:  1
Gomory fractional cuts applied:  24

Root node processing (before b&c):
  Real time             =    9.23 sec. (6879.97 ticks)
Parallel b&c, 32 threads:
  Real time             =    8.36 sec. (1328.02 ticks)
  Sync time (average)   =    2.24 sec.
  Wait time (average)   =    0.00 sec.
                          ------------
Total (root+branch&cut) =   17.59 sec. (8207.99 ticks)

Solution pool: 16 solutions saved.

MIP - Integer optimal, tolerance (0.001/1e-06):  Objective =  2.7324257392e+03
Current MIP best bound =  2.7340370846e+03 (gap = 1.61135, 0.06%)
Solution time =   17.63 sec.  Iterations = 16236  Nodes = 1256 (89)
Deterministic time = 8208.30 ticks  (465.72 ticks/sec)

CPLEX> Incumbent solution written to file 'C:\Users\llavin\Desktop\test85\logs\tmp09czahal.cplex.sol'.
CPLEX> Exporting results... 
